NAME : amz1369.71137_71137.tour
COMMENT : Cost = 71137_71137
COMMENT : Found by LKH-AMZ [Keld Helsgaun] Sun May 11 13:09:56 2025
COMMENT : TW viol.: 0 #: 0
TYPE : TOUR
DIMENSION : 107
TOUR_SECTION
92
47
95
3
31
98
94
78
82
2
10
55
103
23
91
13
61
11
8
30
48
53
41
7
51
99
58
33
32
85
45
59
89
96
60
25
81
12
52
106
40
27
24
84
102
9
69
18
19
80
26
1
42
38
62
72
50
21
29
43
65
64
6
20
56
54
73
4
35
86
68
17
67
97
44
70
104
15
83
101
49
77
93
36
88
74
28
22
16
75
63
100
66
105
5
37
57
39
14
71
90
46
87
107
76
34
79
-1
EOF
